RAW/XT/fspd/X-n115-k10.vrp_seed-3.out
12211	0.164	36.312
